p cnf 20 36
-3 9 14 0
6 -9 -12 0
-2 11 17 0
3 -13 -17 0
2 -5 -15 0
-8 -10 -12 0
9 14 18 0
-2 5 -19 0
6 -18 20 0
1 3 -9 0
-6 -8 11 0
-5 -13 -16 0
5 -14 18 0
5 15 -16 0
5 8 20 0
-1 5 14 0
3 6 -12 0
-7 -12 15 0
-16 -17 20 0
-10 15 18 0
-1 -15 19 0
-3 -7 -16 0
-5 15 18 0
11 -15 17 0
5 7 -20 0
-7 -11 -14 0
3 4 7 0
-9 -10 13 0
1 -7 10 0
5 -13 20 0
4 -8 -9 0
2 -8 20 0
17 -18 19 0
-6 16 18 0
-10 17 19 0
12 13 15 0
